157	32	4	87	
13	11	12	11

0	0	0	0	0	0	3	1	2	3
1	7	0	0	0	10	1	8
2	0	3	0	0	8	1	4
3	3	0	0	10	6	1	5
4	2	4	4	7	5	2	9	12
5	1	3	7	0	10	1	6
6	0	7	0	0	6	1	7
7	1	0	6	7	5	1	11
8	0	0	0	6	6	2	9	14
9	5	0	0	1	2	1	10
10	10	5	1	0	8	1	19
11	0	0	3	9	2	1	13
12	10	3	0	2	10	1	14
13	5	3	0	7	2	1	15
14	6	4	0	10	2	1	29
15	0	0	5	0	6	1	16
16	2	5	0	0	7	2	17	19
17	0	3	1	6	2	1	18
18	0	0	10	0	2	1	20
19	0	0	0	5	7	1	27
20	0	0	5	6	8	1	21
21	0	10	0	3	3	2	22	30
22	6	7	0	0	3	1	23
23	2	0	7	0	10	1	24
24	8	0	0	0	2	1	25
25	5	0	5	0	3	1	26
26	0	0	0	4	3	1	28
27	0	0	0	10	1	1	30
28	4	0	0	4	7	1	31
29	9	0	9	0	7	1	31
30	8	4	6	0	4	1	31
31	0	0	0	0	0	0
